# Objective value = 38.0
xobj 38.0
x0_r1 0.0
x1_r1 -0.0
x2_r1 -0.0
x3_r1 -1.0200174038743626e-15
y0_r1 -1.0200174038743626e-15
y1_r1 0.0
y2_r1 -0.0
y3_r1 -1.0269562977782698e-15
SH0_r1 -1.0269562977782698e-15
SL0_r1 -0.0
x4_r1 -0.0
x5_r1 -0.0
x6_r1 -0.0
x7_r1 -0.0
y4_r1 0.0
y5_r1 0.0
y6_r1 -0.0
y7_r1 0.0
SH1_r1 -0.0
SL1_r1 -0.0
x8_r1 -0.0
x9_r1 0.0
x10_r1 -0.0
x11_r1 0.0
y8_r1 0.0
y9_r1 0.0
y10_r1 -0.0
y11_r1 0.0
SH2_r1 -0.0
SL2_r1 -0.0
x12_r1 -0.0
x13_r1 -0.0
x14_r1 -0.0
x15_r1 -0.0
y12_r1 -0.0
y13_r1 0.0
y14_r1 -0.0
y15_r1 -0.0
SH3_r1 0.0
SL3_r1 -0.0
x16_r1 0.0
x17_r1 -0.0
x18_r1 -0.0
x19_r1 0.0
y16_r1 0.0
y17_r1 0.0
y18_r1 -0.0
y19_r1 -0.0
SH4_r1 -0.0
SL4_r1 -0.0
x20_r1 -0.0
x21_r1 -0.0
x22_r1 -0.0
x23_r1 -0.0
y20_r1 0.0
y21_r1 0.0
y22_r1 -0.0
y23_r1 0.0
SH5_r1 0.0
SL5_r1 -0.0
x24_r1 0.0
x25_r1 -0.0
x26_r1 0.0
x27_r1 -0.0
y24_r1 0.0
y25_r1 0.0
y26_r1 -0.0
y27_r1 -0.0
SH6_r1 0.0
SL6_r1 -0.0
x28_r1 0.0
x29_r1 0.0
x30_r1 0.0
x31_r1 0.0
y28_r1 0.0
y29_r1 0.0
y30_r1 -0.0
y31_r1 -0.0
SH7_r1 0.0
SL7_r1 -0.0
x32_r1 -0.0
x33_r1 -0.0
x34_r1 1.5681900222830336e-15
x35_r1 -0.0
y32_r1 -0.0
y33_r1 7.771561172376096e-16
y34_r1 0.0
y35_r1 2.3531656946924877e-15
SH8_r1 2.3531656946924877e-15
SL8_r1 -0.0
x36_r1 -0.0
x37_r1 0.0
x38_r1 1.8041124150158794e-16
x39_r1 1.8041124150158794e-16
y36_r1 -0.0
y37_r1 -1.8041124150158794e-16
y38_r1 -0.0
y39_r1 -0.0
SH9_r1 0.0
SL9_r1 -0.0
x40_r1 -0.0
x41_r1 -0.0
x42_r1 -0.0
x43_r1 -0.0
y40_r1 -0.0
y41_r1 -0.0
y42_r1 -0.0
y43_r1 -0.0
SH10_r1 -0.0
SL10_r1 -0.0
x44_r1 -0.0
x45_r1 0.0
x46_r1 -0.0
x47_r1 0.0
y44_r1 0.0
y45_r1 0.0
y46_r1 -0.0
y47_r1 -0.0
SH11_r1 0.0
SL11_r1 -0.0
x48_r1 1.0
x49_r1 1.0
x50_r1 1.0
x51_r1 1.0
y48_r1 0.0
y49_r1 -0.0
y50_r1 -0.0
y51_r1 1.0
SH12_r1 1.0
SL12_r1 -0.0
x52_r1 -9.165273002606418e-16
x53_r1 -0.0
x54_r1 -0.0
x55_r1 2.080965228735234e-15
y52_r1 9.165273002606418e-16
y53_r1 -0.0
y54_r1 0.0
y55_r1 9.165273002606418e-16
SH13_r1 -0.0
SL13_r1 -0.0
x56_r1 -8.27463098040937e-16
x57_r1 -0.0
x58_r1 -2.130240428499519e-15
x59_r1 -2.1163626406917047e-15
y56_r1 0.0
y57_r1 -0.0
y58_r1 -1.0191500421363742e-16
y59_r1 -2.220446049250313e-15
SH14_r1 -2.2620794126737565e-15
SL14_r1 -0.0
x60_r1 1.0
x61_r1 1.0
x62_r1 1.0
x63_r1 0.9999999999999999
y60_r1 0.0
y61_r1 0.0
y62_r1 -0.0
y63_r1 1.0
SH15_r1 1.0
SL15_r1 -0.0
y0_r2 -0.0
y1_r2 -0.0
y2_r2 8.310691282517965e-15
y3_r2 0.0
SH0_r2 8.310691282517965e-15
SL0_r2 0.0
y4_r2 -0.0
y5_r2 -0.0
y6_r2 0.0
y7_r2 0.0
SH1_r2 0.0
SL1_r2 0.0
y8_r2 -0.0
y9_r2 -0.0
y10_r2 0.0
y11_r2 0.0
SH2_r2 -0.0
SL2_r2 -0.0
y12_r2 -0.0
y13_r2 -0.0
y14_r2 -0.0
y15_r2 0.0
SH3_r2 -0.0
SL3_r2 -0.0
y16_r2 0.0
y17_r2 0.0
y18_r2 -0.0
y19_r2 -0.0
SH4_r2 0.0
SL4_r2 0.0
y20_r2 0.0
y21_r2 0.0
y22_r2 -0.0
y23_r2 0.0
SH5_r2 -0.0
SL5_r2 0.0
y24_r2 0.0
y25_r2 0.0
y26_r2 -0.0
y27_r2 -0.0
SH6_r2 -0.0
SL6_r2 2.914335439641036e-16
y28_r2 0.0
y29_r2 0.0
y30_r2 -0.0
y31_r2 -0.0
SH7_r2 0.0
SL7_r2 -0.0
y32_r2 -0.0
y33_r2 -0.0
y34_r2 -0.0
y35_r2 -0.0
SH8_r2 -0.0
SL8_r2 -0.0
y36_r2 0.0
y37_r2 -0.0
y38_r2 -0.0
y39_r2 0.0
SH9_r2 0.0
SL9_r2 -0.0
y40_r2 0.0
y41_r2 -0.0
y42_r2 -0.0
y43_r2 0.0
SH10_r2 -0.0
SL10_r2 -0.0
y44_r2 -1.0993810029003015e-16
y45_r2 -1.0213184464813452e-16
y46_r2 -0.0
y47_r2 -0.0
SH11_r2 -1.2641797331180982e-16
SL11_r2 -1.4116312285761268e-16
y48_r2 -0.0
y49_r2 -0.0
y50_r2 -1.0408340855860843e-15
y51_r2 -9.992007221626409e-16
SH12_r2 -1.0408340855860843e-15
SL12_r2 -3.066991105526995e-15
y52_r2 0.0
y53_r2 -0.0
y54_r2 -0.0
y55_r2 -0.0
SH13_r2 0.0
SL13_r2 -0.0
y56_r2 0.0
y57_r2 0.0
y58_r2 1.700029006457271e-15
y59_r2 -9.992007221626409e-16
SH14_r2 -1.1102230246251565e-16
SL14_r2 5.441379540809044e-16
y60_r2 -0.0
y61_r2 -0.0
y62_r2 1.0
y63_r2 -9.922618282587337e-16
SH15_r2 1.0
SL15_r2 1.0
y0_r3 -0.0
y1_r3 -0.0
y2_r3 -0.0
y3_r3 -0.0
SH0_r3 -0.0
SL0_r3 -0.0
y4_r3 0.0
y5_r3 0.0
y6_r3 -0.0
y7_r3 0.0
SH1_r3 -0.0
SL1_r3 0.0
y8_r3 0.0
y9_r3 0.0
y10_r3 -0.0
y11_r3 -0.0
SH2_r3 0.0
SL2_r3 -0.0
y12_r3 -2.1642320221604996e-15
y13_r3 0.0
y14_r3 0.0
y15_r3 -2.234249773604734e-15
SH3_r3 -2.234249773604734e-15
SL3_r3 -0.0
y16_r3 -0.0
y17_r3 -0.0
y18_r3 -0.0
y19_r3 -0.0
SH4_r3 0.0
SL4_r3 -0.0
y20_r3 0.0
y21_r3 0.0
y22_r3 -0.0
y23_r3 -0.0
SH5_r3 0.0
SL5_r3 0.0
y24_r3 -0.0
y25_r3 -0.0
y26_r3 -0.0
y27_r3 -0.0
SH6_r3 -3.426078865054194e-17
SL6_r3 -0.0
y28_r3 -0.0
y29_r3 -0.0
y30_r3 0.0
y31_r3 -0.0
SH7_r3 -0.0
SL7_r3 -0.0
y32_r3 -1.7226422654561907e-15
y33_r3 3.09638494019491e-15
y34_r3 -0.0
y35_r3 -0.0
SH8_r3 1.313680474053043e-15
SL8_r3 -0.0
y36_r3 -0.0
y37_r3 -0.0
y38_r3 -0.0
y39_r3 0.0
SH9_r3 -0.0
SL9_r3 -0.0
y40_r3 -0.0
y41_r3 -0.0
y42_r3 -0.0
y43_r3 0.0
SH10_r3 -0.0
SL10_r3 -0.0
y44_r3 0.9999999999999993
y45_r3 3.09638494019491e-15
y46_r3 0.0
y47_r3 1.0
SH11_r3 1.0
SL11_r3 -0.0
y48_r3 0.0
y49_r3 0.0
y50_r3 0.0
y51_r3 -0.0
SH12_r3 -0.0
SL12_r3 0.0
y52_r3 0.0
y53_r3 0.0
y54_r3 0.0
y55_r3 -0.0
SH13_r3 -0.0
SL13_r3 0.0
y56_r3 0.0
y57_r3 0.0
y58_r3 -0.0
y59_r3 -0.0
SH14_r3 0.0
SL14_r3 0.0
y60_r3 -9.853229343548264e-16
y61_r3 -6.505213034913027e-17
y62_r3 -0.0
y63_r3 -0.0
SH15_r3 -9.992007221626409e-16
SL15_r3 -0.0
y0_r4 0.0
y1_r4 0.0
y2_r4 -0.0
y3_r4 0.0
SH0_r4 -0.0
SL0_r4 -0.0
y4_r4 -0.0
y5_r4 -0.0
y6_r4 -0.0
y7_r4 -0.0
SH1_r4 0.0
SL1_r4 0.0
y8_r4 1.0
y9_r4 1.7226422654561909e-15
y10_r4 0.0
y11_r4 1.0
SH2_r4 1.0
SL2_r4 -0.0
y12_r4 0.0
y13_r4 -2.546574062733953e-15
y14_r4 -0.0
y15_r4 -0.0
SH3_r4 -1.0130785099704553e-15
SL3_r4 0.0
y16_r4 -0.0
y17_r4 0.0
y18_r4 -0.0
y19_r4 -0.0
SH4_r4 0.0
SL4_r4 -0.0
y20_r4 -0.0
y21_r4 -0.0
y22_r4 -0.0
y23_r4 -0.0
SH5_r4 -0.0
SL5_r4 -0.0
y24_r4 -0.0
y25_r4 3.09638494019491e-15
y26_r4 -0.0
y27_r4 -0.0
SH6_r4 3.09638494019491e-15
SL6_r4 -0.0
y28_r4 -0.0
y29_r4 -5.421010862427522e-17
y30_r4 0.0
y31_r4 0.0
SH7_r4 -5.421010862427522e-17
SL7_r4 0.0
y32_r4 -0.0
y33_r4 0.0
y34_r4 -0.0
y35_r4 -0.0
SH8_r4 -0.0
SL8_r4 -0.0
y36_r4 0.0
y37_r4 -0.0
y38_r4 -0.0
y39_r4 -0.0
SH9_r4 -0.0
SL9_r4 -0.0
y40_r4 0.0
y41_r4 0.0
y42_r4 -0.0
y43_r4 -0.0
SH10_r4 0.0
SL10_r4 -0.0
y44_r4 -0.0
y45_r4 -0.0
y46_r4 0.0
y47_r4 -0.0
SH11_r4 -0.0
SL11_r4 -0.0
y48_r4 -1.1298520290750855e-15
y49_r4 1.1298520290750855e-15
y50_r4 -0.0
y51_r4 0.0
SH12_r4 0.0
SL12_r4 -0.0
y52_r4 -0.0
y53_r4 -0.0
y54_r4 -0.0
y55_r4 0.0
SH13_r4 -0.0
SL13_r4 -0.0
y56_r4 1.0
y57_r4 1.1298520290750855e-15
y58_r4 -0.0
y59_r4 1.0
SH14_r4 1.0
SL14_r4 0.0
y60_r4 -0.0
y61_r4 -0.0
y62_r4 -0.0
y63_r4 0.0
SH15_r4 -0.0
SL15_r4 -0.0
y0_r5 9.084675718373908e-16
y1_r5 1.0
y2_r5 -0.0
y3_r5 1.0
SH0_r5 1.0
SL0_r5 -0.0
y4_r5 -0.0
y5_r5 -0.0
y6_r5 -0.0
y7_r5 -0.0
SH1_r5 -0.0
SL1_r5 -0.0
y8_r5 -0.0
y9_r5 0.0
y10_r5 -0.0
y11_r5 0.0
SH2_r5 0.0
SL2_r5 -0.0
y12_r5 9.084675718373908e-16
y13_r5 1.000000000000001
y14_r5 -0.0
y15_r5 1.000000000000008
SH3_r5 1.0
SL3_r5 -0.0
y16_r5 -1.951563910473908e-15
y17_r5 4.0766001685454967e-16
y18_r5 -0.0
y19_r5 -0.0
SH4_r5 -1.951563910473908e-15
SL4_r5 -0.0
y20_r5 -0.0
y21_r5 4.0592529337857286e-16
y22_r5 -0.0
y23_r5 0.0
SH5_r5 -0.0
SL5_r5 -0.0
y24_r5 0.0
y25_r5 -0.0
y26_r5 -0.0
y27_r5 -0.0
SH6_r5 -0.0
SL6_r5 -0.0
y28_r5 1.1298520290750855e-15
y29_r5 4.0939474033052647e-16
y30_r5 -0.0
y31_r5 -0.0
SH7_r5 1.1298520290750855e-15
SL7_r5 1.1298520290750855e-15
y32_r5 -0.0
y33_r5 -0.0
y34_r5 0.0
y35_r5 -0.0
SH8_r5 -0.0
SL8_r5 -0.0
y36_r5 -0.0
y37_r5 0.0
y38_r5 -0.0
y39_r5 -0.0
SH9_r5 0.0
SL9_r5 -0.0
y40_r5 -0.0
y41_r5 -0.0
y42_r5 -0.0
y43_r5 -0.0
SH10_r5 -0.0
SL10_r5 -0.0
y44_r5 0.0
y45_r5 0.0
y46_r5 -0.0
y47_r5 0.0
SH11_r5 -0.0
SL11_r5 0.0
y48_r5 9.084675718373917e-16
y49_r5 1.0
y50_r5 -0.0
y51_r5 1.0000000000000082
SH12_r5 1.0
SL12_r5 5.450805431024351e-16
y52_r5 -0.0
y53_r5 -0.0
y54_r5 -0.0
y55_r5 -0.0
SH13_r5 -0.0
SL13_r5 -0.0
y56_r5 -0.0
y57_r5 -0.0
y58_r5 -0.0
y59_r5 -0.0
SH14_r5 -0.0
SL14_r5 -0.0
y60_r5 9.084675718373915e-16
y61_r5 1.0
y62_r5 0.0
y63_r5 1.0000000000000082
SH15_r5 1.0
SL15_r5 -7.906872517625902e-15
y0_r6 -0.0
y1_r6 9.08467571837391e-16
y2_r6 -0.0
y3_r6 -0.0
SH0_r6 -1.3178120862709828e-14
SL0_r6 -0.0
y4_r6 -0.0
y5_r6 -2.6619331738864105e-15
y6_r6 -0.0
y7_r6 0.0
SH1_r6 -2.661065812148422e-15
SL1_r6 -0.0
y8_r6 -0.0
y9_r6 -0.0
y10_r6 -0.0
y11_r6 -0.0
SH2_r6 0.0
SL2_r6 -0.0
y12_r6 -0.0
y13_r6 9.084675718373908e-16
y14_r6 -0.0
y15_r6 -0.0
SH3_r6 -1.3178120862709838e-14
SL3_r6 -0.0
y16_r6 0.0
y17_r6 1.0
y18_r6 0.0
y19_r6 6.336561313565805e-16
SH4_r6 1.0
SL4_r6 -0.0
y20_r6 -0.0
y21_r6 4.0766001685454967e-16
y22_r6 -0.0
y23_r6 -0.0
SH5_r6 4.0592529337857286e-16
SL5_r6 -0.0
y24_r6 0.0
y25_r6 -0.0
y26_r6 -0.0
y27_r6 -0.0
SH6_r6 0.0
SL6_r6 0.0
y28_r6 -0.0
y29_r6 1.0
y30_r6 -0.0
y31_r6 0.0
SH7_r6 1.0
SL7_r6 -0.0
y32_r6 -0.0
y33_r6 -0.0
y34_r6 -0.0
y35_r6 -0.0
SH8_r6 -0.0
SL8_r6 -0.0
y36_r6 -0.0
y37_r6 0.0
y38_r6 0.0
y39_r6 -0.0
SH9_r6 0.0
SL9_r6 -0.0
y40_r6 -0.0
y41_r6 0.0
y42_r6 -0.0
y43_r6 -0.0
SH10_r6 0.0
SL10_r6 -0.0
y44_r6 -0.0
y45_r6 0.0
y46_r6 0.0
y47_r6 -0.0
SH11_r6 -0.0
SL11_r6 -0.0
y48_r6 0.0
y49_r6 1.0
y50_r6 -0.0
y51_r6 0.0
SH12_r6 1.000000000000008
SL12_r6 -0.0
y52_r6 0.0
y53_r6 0.0
y54_r6 -0.0
y55_r6 -0.0
SH13_r6 -0.0
SL13_r6 -0.0
y56_r6 0.0
y57_r6 0.0
y58_r6 -0.0
y59_r6 -0.0
SH14_r6 -0.0
SL14_r6 -0.0
y60_r6 -0.0
y61_r6 1.0
y62_r6 0.0
y63_r6 -0.0
SH15_r6 1.0000000000000082
SL15_r6 -0.0
y0_r7 -0.0
y1_r7 -0.0
y2_r7 -0.0
y3_r7 -0.0
SH0_r7 -0.0
SL0_r7 -0.0
y4_r7 0.0
y5_r7 0.0
y6_r7 0.0
y7_r7 0.0
SH1_r7 -0.0
SL1_r7 -0.0
y8_r7 -0.0
y9_r7 -0.0
y10_r7 -0.0
y11_r7 -0.0
SH2_r7 -0.0
SL2_r7 -0.0
y12_r7 -0.0
y13_r7 -0.0
y14_r7 -0.0
y15_r7 -0.0
SH3_r7 0.0
SL3_r7 -0.0
y16_r7 0.0
y17_r7 9.084675718373908e-16
y18_r7 -0.0
y19_r7 0.0
SH4_r7 -1.3178120862709828e-14
SL4_r7 -0.0
y20_r7 0.0
y21_r7 1.0
y22_r7 -0.0
y23_r7 -0.0
SH5_r7 1.0
SL5_r7 -0.0
y24_r7 0.0
y25_r7 0.0
y26_r7 -1.58137450352518e-14
y27_r7 0.0
SH6_r7 0.0
SL6_r7 0.0
y28_r7 0.0
y29_r7 1.0
y30_r7 -1.58137450352518e-14
y31_r7 0.0
SH7_r7 1.000000000000008
SL7_r7 -0.0
y32_r7 -0.0
y33_r7 -0.0
y34_r7 -0.0
y35_r7 -0.0
SH8_r7 -0.0
SL8_r7 -0.0
y36_r7 -0.0
y37_r7 -0.0
y38_r7 -0.0
y39_r7 -0.0
SH9_r7 -0.0
SL9_r7 -0.0
y40_r7 -0.0
y41_r7 -0.0
y42_r7 -0.0
y43_r7 -0.0
SH10_r7 0.0
SL10_r7 -0.0
y44_r7 -0.0
y45_r7 -0.0
y46_r7 -0.0
y47_r7 -0.0
SH11_r7 -0.0
SL11_r7 -0.0
y48_r7 -0.0
y49_r7 -0.0
y50_r7 0.0
y51_r7 -0.0
SH12_r7 -0.0
SL12_r7 -0.0
y52_r7 -0.0
y53_r7 0.0
y54_r7 0.0
y55_r7 0.0
SH13_r7 6.336561313565805e-16
SL13_r7 -0.0
y56_r7 -0.0
y57_r7 -0.0
y58_r7 -0.0
y59_r7 -0.0
SH14_r7 -0.0
SL14_r7 -0.0
y60_r7 -0.0
y61_r7 -0.0
y62_r7 -0.0
y63_r7 -0.0
SH15_r7 0.0
SL15_r7 -0.0
y0_r8 0.0
y1_r8 -0.0
y2_r8 0.0
y3_r8 -0.0
SH0_r8 0.0
SL0_r8 -0.0
y4_r8 -0.0
y5_r8 -0.0
y6_r8 -0.0
y7_r8 -0.0
SH1_r8 0.0
SL1_r8 -0.0
y8_r8 -0.0
y9_r8 0.0
y10_r8 -0.0
y11_r8 -0.0
SH2_r8 -0.0
SL2_r8 -0.0
y12_r8 -0.0
y13_r8 -0.0
y14_r8 -0.0
y15_r8 -0.0
SH3_r8 -0.0
SL3_r8 -0.0
y16_r8 -0.0
y17_r8 0.0
y18_r8 0.0
y19_r8 -0.0
SH4_r8 0.0
SL4_r8 -0.0
y20_r8 -0.0
y21_r8 0.0
y22_r8 0.0
y23_r8 0.9999999999999979
SH5_r8 1.0
SL5_r8 0.9999999999999973
y24_r8 -0.0
y25_r8 0.0
y26_r8 -0.0
y27_r8 -0.0
SH6_r8 -0.0
SL6_r8 -0.0
y28_r8 -0.0
y29_r8 8.448748418087738e-16
y30_r8 -0.0
y31_r8 1.0560935522609674e-15
SH7_r8 -0.0
SL7_r8 -0.0
y32_r8 -0.0
y33_r8 0.0
y34_r8 -0.0
y35_r8 -0.0
SH8_r8 -0.0
SL8_r8 -0.0
y36_r8 -0.0
y37_r8 1.0901610862048696e-15
y38_r8 -0.0
y39_r8 0.0
SH9_r8 -1.58137450352518e-14
SL9_r8 -0.0
y40_r8 0.0
y41_r8 -0.0
y42_r8 -0.0
y43_r8 -0.0
SH10_r8 -0.0
SL10_r8 -0.0
y44_r8 0.0
y45_r8 -0.0
y46_r8 -0.0
y47_r8 -0.0
SH11_r8 -0.0
SL11_r8 -0.0
y48_r8 -0.0
y49_r8 -0.0
y50_r8 -0.0
y51_r8 -0.0
SH12_r8 -0.0
SL12_r8 -0.0
y52_r8 -0.0
y53_r8 0.0
y54_r8 -0.0
y55_r8 0.0
SH13_r8 -0.0
SL13_r8 -0.0
y56_r8 0.0
y57_r8 -0.0
y58_r8 0.0
y59_r8 -0.0
SH14_r8 -0.0
SL14_r8 -0.0
y60_r8 -0.0
y61_r8 -0.0
y62_r8 -0.0
y63_r8 -0.0
SH15_r8 0.0
SL15_r8 -0.0
y0_r9 0.0
y1_r9 -0.0
y2_r9 -0.0
y3_r9 -0.0
SH0_r9 -0.0
SL0_r9 -0.0
y4_r9 -0.0
y5_r9 -0.0
y6_r9 -0.0
y7_r9 -0.0
SH1_r9 -0.0
SL1_r9 -0.0
y8_r9 -0.0
y9_r9 -0.0
y10_r9 -0.0
y11_r9 -0.0
SH2_r9 -0.0
SL2_r9 -0.0
y12_r9 -0.0
y13_r9 -0.0
y14_r9 0.0
y15_r9 0.0
SH3_r9 -0.0
SL3_r9 -0.0
y16_r9 -0.0
y17_r9 -0.0
y18_r9 -0.0
y19_r9 -0.0
SH4_r9 -0.0
SL4_r9 -0.0
y20_r9 0.0
y21_r9 8.176208146536523e-16
y22_r9 0.0
y23_r9 -0.0
SH5_r9 -7.9068725176259e-15
SL5_r9 -0.0
y24_r9 -0.0
y25_r9 -0.0
y26_r9 -0.0
y27_r9 -0.0
SH6_r9 5.450805431024348e-16
SL6_r9 -0.0
y28_r9 -0.0
y29_r9 0.0
y30_r9 -0.0
y31_r9 0.0
SH7_r9 0.0
SL7_r9 -0.0
y32_r9 -0.0
y33_r9 0.0
y34_r9 -0.0
y35_r9 -0.0
SH8_r9 0.0
SL8_r9 -0.0
y36_r9 0.0
y37_r9 0.0
y38_r9 -0.0
y39_r9 -0.0
SH9_r9 0.0
SL9_r9 -0.0
y40_r9 -0.0
y41_r9 -0.0
y42_r9 -0.0
y43_r9 -0.0
SH10_r9 -0.0
SL10_r9 -0.0
y44_r9 0.0
y45_r9 -0.0
y46_r9 -0.0
y47_r9 -0.0
SH11_r9 -0.0
SL11_r9 -0.0
y48_r9 0.0
y49_r9 0.0
y50_r9 -0.0
y51_r9 -0.0
SH12_r9 0.0
SL12_r9 -0.0
y52_r9 -0.0
y53_r9 1.0
y54_r9 -0.0
y55_r9 1.0
SH13_r9 1.0
SL13_r9 -0.0
y56_r9 -0.0
y57_r9 -0.0
y58_r9 0.0
y59_r9 -0.0
SH14_r9 -0.0
SL14_r9 -0.0
y60_r9 0.0
y61_r9 -0.0
y62_r9 -0.0
y63_r9 0.0
SH15_r9 -0.0
SL15_r9 -0.0
